CBSS/runtime_files/msmp.tsp
NAME : mtspf
COMMENT : file for mtspf test
TYPE : ATSP
DIMENSION : 31
EDGE_WEIGHT_TYPE : EXPLICIT
EDGE_WEIGHT_FORMAT : FULL_MATRIX
EDGE_WEIGHT_SECTION
999999 999999 999999 999999 999999 999999 999999 999999 999999 999999 8 13 16 12 17 9 15 9 11 12 13 17 16 9 12 13 15 13 8 12 11 
999999 999999 999999 999999 999999 999999 999999 999999 999999 999999 8 11 14 10 15 11 13 7 9 10 11 15 14 11 10 11 13 11 8 10 9 
999999 999999 999999 999999 999999 999999 999999 999999 999999 999999 10 9 12 8 13 13 11 5 7 12 11 13 12 13 12 11 11 9 10 8 7 
999999 999999 999999 999999 999999 999999 999999 999999 999999 999999 12 7 10 10 11 15 11 7 7 14 13 11 10 15 14 13 11 7 12 10 7 
999999 999999 999999 999999 999999 999999 999999 999999 999999 999999 14 9 8 12 9 17 13 9 9 16 15 9 8 17 16 15 13 9 14 12 9 
999999 999999 999999 999999 999999 999999 999999 999999 999999 999999 7 12 15 11 16 10 14 8 10 11 12 16 15 10 11 12 14 12 7 11 10 
999999 999999 999999 999999 999999 999999 999999 999999 999999 999999 9 10 13 9 14 12 12 6 8 11 10 14 13 12 11 10 12 10 9 9 8 
999999 999999 999999 999999 999999 999999 999999 999999 999999 999999 11 8 11 9 12 14 10 6 6 13 12 12 11 14 13 12 10 8 11 9 6 
999999 999999 999999 999999 999999 999999 999999 999999 999999 999999 13 8 9 11 10 16 12 8 8 15 14 10 9 16 15 14 12 8 13 11 8 
999999 999999 999999 999999 999999 999999 999999 999999 999999 999999 9 14 17 13 18 10 16 10 12 13 14 18 17 10 13 14 16 14 9 13 12 
999999 999999 999999 999999 999999 999999 999999 999999 999999 999999 0 5 8 4 9 3 7 5 5 4 5 9 8 3 4 5 7 5 0 4 5 
999999 999999 999999 999999 999999 999999 999999 999999 999999 999999 5 0 3 3 4 8 4 4 2 7 6 4 3 8 7 6 4 0 5 3 2 
999999 999999 999999 999999 999999 999999 999999 999999 999999 999999 8 3 0 6 3 11 7 7 5 10 9 3 0 11 10 9 7 3 8 6 5 
999999 999999 999999 999999 999999 999999 999999 999999 999999 999999 4 3 6 0 5 5 3 3 3 4 3 5 6 5 4 3 3 3 4 0 3 
999999 999999 999999 999999 999999 999999 999999 999999 999999 999999 9 4 3 5 0 8 4 8 6 7 6 0 3 8 7 6 4 4 9 5 6 
999999 999999 999999 999999 999999 999999 999999 999999 999999 999999 3 8 11 5 8 0 6 8 8 3 4 8 11 0 3 4 6 8 3 5 8 
999999 999999 999999 999999 999999 999999 999999 999999 999999 999999 7 4 7 3 4 6 0 6 4 3 2 4 7 6 3 2 0 4 7 3 4 
999999 999999 999999 999999 999999 999999 999999 999999 999999 999999 5 4 7 3 8 8 6 0 2 7 6 8 7 8 7 6 6 4 5 3 2 
999999 999999 999999 999999 999999 999999 999999 999999 999999 999999 5 2 5 3 6 8 4 2 0 7 6 6 5 8 7 6 4 2 5 3 0 
999999 999999 999999 999999 999999 999999 999999 999999 999999 999999 4 7 10 4 7 3 3 7 7 0 1 7 10 3 0 1 3 7 4 4 7 
999999 999999 999999 999999 999999 999999 999999 999999 999999 999999 5 6 9 3 6 4 2 6 6 1 0 6 9 4 1 0 2 6 5 3 6 
0 0 0 0 0 0 0 0 0 0 999999 999999 999999 999999 999999 999999 999999 999999 999999 999999 999999 999999 999999 999999 999999 999999 999999 999999 999999 999999 999999 
0 0 0 0 0 0 0 0 0 0 999999 999999 999999 999999 999999 999999 999999 999999 999999 999999 999999 999999 999999 999999 999999 999999 999999 999999 999999 999999 999999 
0 0 0 0 0 0 0 0 0 0 999999 999999 999999 999999 999999 999999 999999 999999 999999 999999 999999 999999 999999 999999 999999 999999 999999 999999 999999 999999 999999 
0 0 0 0 0 0 0 0 0 0 999999 999999 999999 999999 999999 999999 999999 999999 999999 999999 999999 999999 999999 999999 999999 999999 999999 999999 999999 999999 999999 
0 0 0 0 0 0 0 0 0 0 999999 999999 999999 999999 999999 999999 999999 999999 999999 999999 999999 999999 999999 999999 999999 999999 999999 999999 999999 999999 999999 
0 0 0 0 0 0 0 0 0 0 999999 999999 999999 999999 999999 999999 999999 999999 999999 999999 999999 999999 999999 999999 999999 999999 999999 999999 999999 999999 999999 
0 0 0 0 0 0 0 0 0 0 999999 999999 999999 999999 999999 999999 999999 999999 999999 999999 999999 999999 999999 999999 999999 999999 999999 999999 999999 999999 999999 
0 0 0 0 0 0 0 0 0 0 999999 999999 999999 999999 999999 999999 999999 999999 999999 999999 999999 999999 999999 999999 999999 999999 999999 999999 999999 999999 999999 
0 0 0 0 0 0 0 0 0 0 999999 999999 999999 999999 999999 999999 999999 999999 999999 999999 999999 999999 999999 999999 999999 999999 999999 999999 999999 999999 999999 
0 0 0 0 0 0 0 0 0 0 999999 999999 999999 999999 999999 999999 999999 999999 999999 999999 999999 999999 999999 999999 999999 999999 999999 999999 999999 999999 999999 
